NAME: n40q45J.tsp, 40 nodes, semilla 999
COMMENT: Problema aleatorio de norma euclidea
DIMENSION: 40
CAPACITY: 45
EDGE_WEIGHT_TYPE: EUC_2D
NODE_COORD_SECTION
1   0.0000   0.0000
2 -258.0000 -199.0000
3 244.0000 486.0000
4 -59.0000 464.0000
5 -209.0000 245.0000
6 -191.0000 -274.0000
7  68.0000 436.0000
8 490.0000 -252.0000
9 -97.0000  72.0000
10 -32.0000 165.0000
11 -330.0000 146.0000
12 353.0000 302.0000
13 -362.0000 224.0000
14 -270.0000 -430.0000
15 414.0000 421.0000
16 -237.0000 -276.0000
17 106.0000   3.0000
18 360.0000 -189.0000
19 371.0000 269.0000
20 390.0000 421.0000
21 173.0000 -359.0000
22 -149.0000 -267.0000
23 -15.0000 478.0000
24 352.0000  15.0000
25 -444.0000 -29.0000
26 -341.0000 -49.0000
27 440.0000 136.0000
28 480.0000 -228.0000
29 -447.0000 -367.0000
30 -127.0000 -406.0000
31  51.0000 -296.0000
32 -178.0000 120.0000
33 -294.0000 -294.0000
34 -394.0000 -465.0000
35 -247.0000 261.0000
36 254.0000 117.0000
37 -353.0000 -497.0000
38 353.0000  89.0000
39 -169.0000 -69.0000
40 257.0000 -377.0000
DISPLAY_DATA_SECTION:
 1  250  250
 2  121  150
 3  372  493
 4  220  482
 5  145  372
 6  154  113
 7  284  468
 8  495  124
 9  201  286
10  234  332
11   85  323
12  426  401
13   69  362
14  115   35
15  457  460
16  131  112
17  303  251
18  430  155
19  435  384
20  445  460
21  336   70
22  175  116
23  242  489
24  426  257
25   28  235
26   79  225
27  470  318
28  490  136
29   26   66
30  186   47
31  275  102
32  161  310
33  103  103
34   53   17
35  126  380
36  377  308
37   73    1
38  426  294
39  165  215
40  378   61
DEMAND_SECTION
1 3
2 1
3 -6
4 -10
5 2
6 1
7 9
8 -8
9 0
10 -1
11 -5
12 1
13 -6
14 3
15 0
16 -9
17 2
18 4
19 6
20 5
21 -2
22 -5
23 7
24 2
25 -3
26 -2
27 -8
28 3
29 9
30 0
31 9
32 -9
33 0
34 5
35 6
36 -4
37 1
38 -7
39 9
40 -3
EOF